<instance format="XCSP3" type="COP">
  <variables>
    <var id="x" note="x is the number of unused bins"> 0..24 </var>
    <array id="b" note="b[i][j] indicates the weight of the jth object put in the ith bin. It is 0 if there is no object at this place." size="[24][3]"> 0 250..256 261 270 271 273 275..278 281 290 291 295 296 304 315 319 324 331 337 347 352 358 361 364 366 370 373 377 380 385 399 420 424 434 439 443 453 466 471 479 492 493 495 </array>
  </variables>
  <constraints>
    <group>
      <mdd>
        <list> %... </list>
        <transitions> (root,0,n3)(root,250,n3)(root,251,n5)(root,252,n7)(root,253,n9)(root,254,n11)(root,255,n13)(root,256,n15)(root,261,n17)(root,270,n19)(root,271,n21)(root,273,n22)(root,275,n24)(root,276,n27)(root,277,n29)(root,278,n30)(root,281,n32)(root,290,n34)(root,291,n37)(root,295,n39)(root,296,n40)(root,304,n42)(root,315,n44)(root,319,n46)(root,324,n48)(root,331,n50)(root,337,n52)(root,347,n54)(root,352,n55)(root,358,n56)(root,361,n57)(root,364,n58)(root,366,n59)(root,370,n60)(root,373,n61)(root,377,n62)(root,380,n63)(root,385,n64)(root,399,n65)(root,420,n66)(root,424,n67)(root,434,n68)(root,439,n69)(root,443,n70)(root,453,n71)(root,466,n72)(root,471,n73)(root,479,n74)(root,492,n75)(root,493,n76)(root,495,n77)(n3,0,n4)(n4,0,nodeT)(n5,0,n4)(n5,250,n4)(n5,251,n6)(n6,0,nodeT)(n6,250,nodeT)(n7,0,n4)(n7,250,n4)(n7,251,n8)(n7,252,n8)(n8,0,nodeT)(n8,250,nodeT)(n8,251,nodeT)(n9,0,n4)(n9,250,n4)(n9,251,n8)(n9,252,n10)(n9,253,n10)(n10,0,nodeT)(n10,250,nodeT)(n10,251,nodeT)(n10,252,nodeT)(n11,0,n4)(n11,250,n4)(n11,251,n8)(n11,252,n10)(n11,253,n12)(n11,254,n12)(n12,0,nodeT)(n12,250,nodeT)(n12,251,nodeT)(n12,252,nodeT)(n12,253,nodeT)(n13,0,n4)(n13,250,n4)(n13,251,n8)(n13,252,n10)(n13,253,n12)(n13,254,n14)(n13,255,n14)(n14,0,nodeT)(n14,250,nodeT)(n14,251,nodeT)(n14,252,nodeT)(n14,253,nodeT)(n14,254,nodeT)(n15,0,n4)(n15,250,n4)(n15,251,n8)(n15,252,n10)(n15,253,n12)(n15,254,n14)(n15,255,n16)(n15,256,n16)(n16,0,nodeT)(n16,250,nodeT)(n16,251,nodeT)(n16,252,nodeT)(n16,253,nodeT)(n16,254,nodeT)(n16,255,nodeT)(n17,0,n4)(n17,250,n4)(n17,251,n8)(n17,252,n10)(n17,253,n12)(n17,254,n14)(n17,255,n16)(n17,256,n18)(n17,261,n18)(n18,0,nodeT)(n18,250,nodeT)(n18,251,nodeT)(n18,252,nodeT)(n18,253,nodeT)(n18,254,nodeT)(n18,255,nodeT)(n18,256,nodeT)(n19,0,n4)(n19,250,n4)(n19,251,n8)(n19,252,n10)(n19,253,n12)(n19,254,n14)(n19,255,n16)(n19,256,n18)(n19,261,n20)(n20,0,nodeT)(n20,250,nodeT)(n20,251,nodeT)(n20,252,nodeT)(n20,253,nodeT)(n20,254,nodeT)(n20,255,nodeT)(n20,256,nodeT)(n20,261,nodeT)(n21,0,n4)(n21,250,n4)(n21,251,n8)(n21,252,n10)(n21,253,n12)(n21,254,n14)(n21,255,n16)(n21,256,n18)(n21,261,n20)(n21,270,n20)(n22,0,n4)(n22,250,n4)(n22,251,n8)(n22,252,n10)(n22,253,n12)(n22,254,n14)(n22,255,n16)(n22,256,n18)(n22,261,n20)(n22,270,n20)(n22,271,n23)(n23,0,nodeT)(n23,250,nodeT)(n23,251,nodeT)(n23,252,nodeT)(n23,253,nodeT)(n23,254,nodeT)(n23,255,nodeT)(n23,256,nodeT)(n23,261,nodeT)(n23,270,nodeT)(n24,0,n4)(n24,250,n4)(n24,251,n8)(n24,252,n10)(n24,253,n12)(n24,254,n14)(n24,255,n16)(n24,256,n18)(n24,261,n20)(n24,270,n20)(n24,271,n23)(n24,273,n25)(n24,275,n26)(n25,0,nodeT)(n25,250,nodeT)(n25,251,nodeT)(n25,252,nodeT)(n25,253,nodeT)(n25,254,nodeT)(n25,255,nodeT)(n25,256,nodeT)(n25,261,nodeT)(n25,270,nodeT)(n25,271,nodeT)(n26,0,nodeT)(n26,250,nodeT)(n26,251,nodeT)(n26,252,nodeT)(n26,253,nodeT)(n26,254,nodeT)(n26,255,nodeT)(n26,256,nodeT)(n26,261,nodeT)(n26,270,nodeT)(n26,271,nodeT)(n26,273,nodeT)(n27,0,n4)(n27,250,n4)(n27,251,n8)(n27,252,n10)(n27,253,n12)(n27,254,n14)(n27,255,n16)(n27,256,n18)(n27,261,n20)(n27,270,n20)(n27,271,n23)(n27,273,n25)(n27,275,n28)(n28,0,nodeT)(n28,250,nodeT)(n28,251,nodeT)(n28,252,nodeT)(n28,253,nodeT)(n28,254,nodeT)(n28,255,nodeT)(n28,256,nodeT)(n28,261,nodeT)(n28,270,nodeT)(n28,271,nodeT)(n28,273,nodeT)(n28,275,nodeT)(n29,0,n4)(n29,250,n4)(n29,251,n8)(n29,252,n10)(n29,253,n12)(n29,254,n14)(n29,255,n16)(n29,256,n18)(n29,261,n20)(n29,270,n20)(n29,271,n23)(n29,273,n25)(n29,275,n28)(n29,276,n28)(n30,0,n4)(n30,250,n4)(n30,251,n8)(n30,252,n10)(n30,253,n12)(n30,254,n14)(n30,255,n16)(n30,256,n18)(n30,261,n20)(n30,270,n20)(n30,271,n23)(n30,273,n25)(n30,275,n28)(n30,276,n28)(n30,277,n31)(n31,0,nodeT)(n31,250,nodeT)(n31,251,nodeT)(n31,252,nodeT)(n31,253,nodeT)(n31,254,nodeT)(n31,255,nodeT)(n31,256,nodeT)(n31,261,nodeT)(n31,270,nodeT)(n31,271,nodeT)(n31,273,nodeT)(n31,275,nodeT)(n31,276,nodeT)(n32,0,n4)(n32,250,n4)(n32,251,n8)(n32,252,n10)(n32,253,n12)(n32,254,n14)(n32,255,n16)(n32,256,n18)(n32,261,n20)(n32,270,n20)(n32,271,n23)(n32,273,n25)(n32,275,n28)(n32,276,n28)(n32,277,n31)(n32,278,n33)(n33,0,nodeT)(n33,250,nodeT)(n33,251,nodeT)(n33,252,nodeT)(n33,253,nodeT)(n33,254,nodeT)(n33,255,nodeT)(n33,256,nodeT)(n33,261,nodeT)(n33,270,nodeT)(n33,271,nodeT)(n33,273,nodeT)(n33,275,nodeT)(n33,276,nodeT)(n33,277,nodeT)(n34,0,n4)(n34,250,n4)(n34,251,n8)(n34,252,n10)(n34,253,n12)(n34,254,n14)(n34,255,n16)(n34,256,n18)(n34,261,n20)(n34,270,n20)(n34,271,n23)(n34,273,n25)(n34,275,n28)(n34,276,n28)(n34,277,n31)(n34,278,n33)(n34,281,n35)(n34,290,n36)(n35,0,nodeT)(n35,250,nodeT)(n35,251,nodeT)(n35,252,nodeT)(n35,253,nodeT)(n35,254,nodeT)(n35,255,nodeT)(n35,256,nodeT)(n35,261,nodeT)(n35,270,nodeT)(n35,271,nodeT)(n35,273,nodeT)(n35,275,nodeT)(n35,276,nodeT)(n35,277,nodeT)(n35,278,nodeT)(n36,0,nodeT)(n36,250,nodeT)(n36,251,nodeT)(n36,252,nodeT)(n36,253,nodeT)(n36,254,nodeT)(n36,255,nodeT)(n36,256,nodeT)(n36,261,nodeT)(n36,270,nodeT)(n36,271,nodeT)(n36,273,nodeT)(n36,275,nodeT)(n36,276,nodeT)(n36,277,nodeT)(n36,278,nodeT)(n36,281,nodeT)(n37,0,n4)(n37,250,n4)(n37,251,n8)(n37,252,n10)(n37,253,n12)(n37,254,n14)(n37,255,n16)(n37,256,n18)(n37,261,n20)(n37,270,n20)(n37,271,n23)(n37,273,n25)(n37,275,n28)(n37,276,n28)(n37,277,n31)(n37,278,n33)(n37,281,n35)(n37,290,n38)(n38,0,nodeT)(n38,250,nodeT)(n38,251,nodeT)(n38,252,nodeT)(n38,253,nodeT)(n38,254,nodeT)(n38,255,nodeT)(n38,256,nodeT)(n38,261,nodeT)(n38,270,nodeT)(n38,271,nodeT)(n38,273,nodeT)(n38,275,nodeT)(n38,276,nodeT)(n38,277,nodeT)(n38,278,nodeT)(n38,281,nodeT)(n38,290,nodeT)(n39,0,n4)(n39,250,n4)(n39,251,n8)(n39,252,n10)(n39,253,n12)(n39,254,n14)(n39,255,n16)(n39,256,n18)(n39,261,n20)(n39,270,n20)(n39,271,n23)(n39,273,n25)(n39,275,n28)(n39,276,n28)(n39,277,n31)(n39,278,n33)(n39,281,n35)(n39,290,n38)(n39,291,n38)(n40,0,n4)(n40,250,n4)(n40,251,n8)(n40,252,n10)(n40,253,n12)(n40,254,n14)(n40,255,n16)(n40,256,n18)(n40,261,n20)(n40,270,n20)(n40,271,n23)(n40,273,n25)(n40,275,n28)(n40,276,n28)(n40,277,n31)(n40,278,n33)(n40,281,n35)(n40,290,n38)(n40,291,n38)(n40,295,n41)(n41,0,nodeT)(n41,250,nodeT)(n41,251,nodeT)(n41,252,nodeT)(n41,253,nodeT)(n41,254,nodeT)(n41,255,nodeT)(n41,256,nodeT)(n41,261,nodeT)(n41,270,nodeT)(n41,271,nodeT)(n41,273,nodeT)(n41,275,nodeT)(n41,276,nodeT)(n41,277,nodeT)(n41,278,nodeT)(n41,281,nodeT)(n41,290,nodeT)(n41,291,nodeT)(n42,0,n4)(n42,250,n4)(n42,251,n8)(n42,252,n10)(n42,253,n12)(n42,254,n14)(n42,255,n16)(n42,256,n18)(n42,261,n20)(n42,270,n20)(n42,271,n23)(n42,273,n25)(n42,275,n28)(n42,276,n28)(n42,277,n31)(n42,278,n33)(n42,281,n35)(n42,290,n38)(n42,291,n38)(n42,295,n41)(n42,296,n43)(n43,0,nodeT)(n43,250,nodeT)(n43,251,nodeT)(n43,252,nodeT)(n43,253,nodeT)(n43,254,nodeT)(n43,255,nodeT)(n43,256,nodeT)(n43,261,nodeT)(n43,270,nodeT)(n43,271,nodeT)(n43,273,nodeT)(n43,275,nodeT)(n43,276,nodeT)(n43,277,nodeT)(n43,278,nodeT)(n43,281,nodeT)(n43,290,nodeT)(n43,291,nodeT)(n43,295,nodeT)(n44,0,n4)(n44,250,n4)(n44,251,n8)(n44,252,n10)(n44,253,n12)(n44,254,n14)(n44,255,n16)(n44,256,n18)(n44,261,n20)(n44,270,n20)(n44,271,n23)(n44,273,n25)(n44,275,n28)(n44,276,n28)(n44,277,n31)(n44,278,n33)(n44,281,n35)(n44,290,n38)(n44,291,n38)(n44,295,n41)(n44,296,n43)(n44,304,n45)(n45,0,nodeT)(n45,250,nodeT)(n45,251,nodeT)(n45,252,nodeT)(n45,253,nodeT)(n45,254,nodeT)(n45,255,nodeT)(n45,256,nodeT)(n45,261,nodeT)(n45,270,nodeT)(n45,271,nodeT)(n45,273,nodeT)(n45,275,nodeT)(n45,276,nodeT)(n45,277,nodeT)(n45,278,nodeT)(n45,281,nodeT)(n45,290,nodeT)(n45,291,nodeT)(n45,295,nodeT)(n45,296,nodeT)(n46,0,n4)(n46,250,n4)(n46,251,n8)(n46,252,n10)(n46,253,n12)(n46,254,n14)(n46,255,n16)(n46,256,n18)(n46,261,n20)(n46,270,n20)(n46,271,n23)(n46,273,n25)(n46,275,n28)(n46,276,n28)(n46,277,n31)(n46,278,n33)(n46,281,n35)(n46,290,n38)(n46,291,n38)(n46,295,n41)(n46,296,n43)(n46,304,n45)(n46,315,n47)(n47,0,nodeT)(n47,250,nodeT)(n47,251,nodeT)(n47,252,nodeT)(n47,253,nodeT)(n47,254,nodeT)(n47,255,nodeT)(n47,256,nodeT)(n47,261,nodeT)(n47,270,nodeT)(n47,271,nodeT)(n47,273,nodeT)(n47,275,nodeT)(n47,276,nodeT)(n47,277,nodeT)(n47,278,nodeT)(n47,281,nodeT)(n47,290,nodeT)(n47,291,nodeT)(n47,295,nodeT)(n47,296,nodeT)(n47,304,nodeT)(n48,0,n4)(n48,250,n4)(n48,251,n8)(n48,252,n10)(n48,253,n12)(n48,254,n14)(n48,255,n16)(n48,256,n18)(n48,261,n20)(n48,270,n20)(n48,271,n23)(n48,273,n25)(n48,275,n28)(n48,276,n28)(n48,277,n31)(n48,278,n33)(n48,281,n35)(n48,290,n38)(n48,291,n38)(n48,295,n41)(n48,296,n43)(n48,304,n45)(n48,315,n47)(n48,319,n49)(n49,0,nodeT)(n49,250,nodeT)(n49,251,nodeT)(n49,252,nodeT)(n49,253,nodeT)(n49,254,nodeT)(n49,255,nodeT)(n49,256,nodeT)(n49,261,nodeT)(n49,270,nodeT)(n49,271,nodeT)(n49,273,nodeT)(n49,275,nodeT)(n49,276,nodeT)(n49,277,nodeT)(n49,278,nodeT)(n49,281,nodeT)(n49,290,nodeT)(n49,291,nodeT)(n49,295,nodeT)(n49,296,nodeT)(n49,304,nodeT)(n49,315,nodeT)(n50,0,n4)(n50,250,n4)(n50,251,n8)(n50,252,n10)(n50,253,n12)(n50,254,n14)(n50,255,n16)(n50,256,n18)(n50,261,n20)(n50,270,n20)(n50,271,n23)(n50,273,n25)(n50,275,n28)(n50,276,n28)(n50,277,n31)(n50,278,n33)(n50,281,n35)(n50,290,n38)(n50,291,n38)(n50,295,n41)(n50,296,n43)(n50,304,n45)(n50,315,n47)(n50,319,n49)(n50,324,n51)(n51,0,nodeT)(n51,250,nodeT)(n51,251,nodeT)(n51,252,nodeT)(n51,253,nodeT)(n51,254,nodeT)(n51,255,nodeT)(n51,256,nodeT)(n51,261,nodeT)(n51,270,nodeT)(n51,271,nodeT)(n51,273,nodeT)(n51,275,nodeT)(n51,276,nodeT)(n51,277,nodeT)(n51,278,nodeT)(n51,281,nodeT)(n51,290,nodeT)(n51,291,nodeT)(n51,295,nodeT)(n51,296,nodeT)(n51,304,nodeT)(n51,315,nodeT)(n51,319,nodeT)(n52,0,n4)(n52,250,n4)(n52,251,n8)(n52,252,n10)(n52,253,n12)(n52,254,n14)(n52,255,n16)(n52,256,n18)(n52,261,n20)(n52,270,n20)(n52,271,n23)(n52,273,n25)(n52,275,n28)(n52,276,n28)(n52,277,n31)(n52,278,n33)(n52,281,n35)(n52,290,n38)(n52,291,n38)(n52,295,n41)(n52,296,n43)(n52,304,n45)(n52,315,n47)(n52,319,n49)(n52,324,n51)(n52,331,n53)(n53,0,nodeT)(n53,250,nodeT)(n53,251,nodeT)(n53,252,nodeT)(n53,253,nodeT)(n53,254,nodeT)(n53,255,nodeT)(n53,256,nodeT)(n53,261,nodeT)(n53,270,nodeT)(n53,271,nodeT)(n53,273,nodeT)(n53,275,nodeT)(n53,276,nodeT)(n53,277,nodeT)(n53,278,nodeT)(n53,281,nodeT)(n53,290,nodeT)(n53,291,nodeT)(n53,295,nodeT)(n53,296,nodeT)(n53,304,nodeT)(n53,315,nodeT)(n53,319,nodeT)(n53,324,nodeT)(n54,0,n4)(n54,250,n4)(n54,251,n8)(n54,252,n10)(n54,253,n12)(n54,254,n14)(n54,255,n16)(n54,256,n18)(n54,261,n20)(n54,270,n20)(n54,271,n23)(n54,273,n25)(n54,275,n28)(n54,276,n28)(n54,277,n31)(n54,278,n33)(n54,281,n35)(n54,290,n38)(n54,291,n38)(n54,295,n41)(n54,296,n43)(n54,304,n45)(n54,315,n47)(n54,319,n49)(n54,324,n51)(n54,331,n51)(n54,337,n49)(n55,0,n4)(n55,250,n4)(n55,251,n8)(n55,252,n10)(n55,253,n12)(n55,254,n14)(n55,255,n16)(n55,256,n18)(n55,261,n20)(n55,270,n20)(n55,271,n23)(n55,273,n25)(n55,275,n28)(n55,276,n28)(n55,277,n31)(n55,278,n33)(n55,281,n35)(n55,290,n38)(n55,291,n38)(n55,295,n41)(n55,296,n43)(n55,304,n45)(n55,315,n47)(n55,319,n49)(n55,324,n51)(n55,331,n49)(n55,337,n47)(n55,347,n45)(n56,0,n4)(n56,250,n4)(n56,251,n8)(n56,252,n10)(n56,253,n12)(n56,254,n14)(n56,255,n16)(n56,256,n18)(n56,261,n20)(n56,270,n20)(n56,271,n23)(n56,273,n25)(n56,275,n28)(n56,276,n28)(n56,277,n31)(n56,278,n33)(n56,281,n35)(n56,290,n38)(n56,291,n38)(n56,295,n41)(n56,296,n43)(n56,304,n45)(n56,315,n47)(n56,319,n49)(n56,324,n49)(n56,331,n47)(n56,337,n47)(n56,347,n43)(n56,352,n38)(n57,0,n4)(n57,250,n4)(n57,251,n8)(n57,252,n10)(n57,253,n12)(n57,254,n14)(n57,255,n16)(n57,256,n18)(n57,261,n20)(n57,270,n20)(n57,271,n23)(n57,273,n25)(n57,275,n28)(n57,276,n28)(n57,277,n31)(n57,278,n33)(n57,281,n35)(n57,290,n38)(n57,291,n38)(n57,295,n41)(n57,296,n43)(n57,304,n45)(n57,315,n47)(n57,319,n49)(n57,324,n49)(n57,331,n47)(n57,337,n45)(n57,347,n41)(n57,352,n36)(n57,358,n36)(n58,0,n4)(n58,250,n4)(n58,251,n8)(n58,252,n10)(n58,253,n12)(n58,254,n14)(n58,255,n16)(n58,256,n18)(n58,261,n20)(n58,270,n20)(n58,271,n23)(n58,273,n25)(n58,275,n28)(n58,276,n28)(n58,277,n31)(n58,278,n33)(n58,281,n35)(n58,290,n38)(n58,291,n38)(n58,295,n41)(n58,296,n43)(n58,304,n45)(n58,315,n47)(n58,319,n49)(n58,324,n47)(n58,331,n47)(n58,337,n45)(n58,347,n36)(n58,352,n36)(n58,358,n35)(n58,361,n28)(n59,0,n4)(n59,250,n4)(n59,251,n8)(n59,252,n10)(n59,253,n12)(n59,254,n14)(n59,255,n16)(n59,256,n18)(n59,261,n20)(n59,270,n20)(n59,271,n23)(n59,273,n25)(n59,275,n28)(n59,276,n28)(n59,277,n31)(n59,278,n33)(n59,281,n35)(n59,290,n38)(n59,291,n38)(n59,295,n41)(n59,296,n43)(n59,304,n45)(n59,315,n47)(n59,319,n49)(n59,324,n47)(n59,331,n45)(n59,337,n45)(n59,347,n36)(n59,352,n36)(n59,358,n31)(n59,361,n26)(n59,364,n23)(n60,0,n4)(n60,250,n4)(n60,251,n8)(n60,252,n10)(n60,253,n12)(n60,254,n14)(n60,255,n16)(n60,256,n18)(n60,261,n20)(n60,270,n20)(n60,271,n23)(n60,273,n25)(n60,275,n28)(n60,276,n28)(n60,277,n31)(n60,278,n33)(n60,281,n35)(n60,290,n38)(n60,291,n38)(n60,295,n41)(n60,296,n43)(n60,304,n45)(n60,315,n47)(n60,319,n47)(n60,324,n47)(n60,331,n45)(n60,337,n41)(n60,347,n36)(n60,352,n35)(n60,358,n25)(n60,361,n20)(n60,364,n20)(n60,366,n20)(n61,0,n4)(n61,250,n4)(n61,251,n8)(n61,252,n10)(n61,253,n12)(n61,254,n14)(n61,255,n16)(n61,256,n18)(n61,261,n20)(n61,270,n20)(n61,271,n23)(n61,273,n25)(n61,275,n28)(n61,276,n28)(n61,277,n31)(n61,278,n33)(n61,281,n35)(n61,290,n38)(n61,291,n38)(n61,295,n41)(n61,296,n43)(n61,304,n45)(n61,315,n47)(n61,319,n47)(n61,324,n45)(n61,331,n45)(n61,337,n38)(n61,347,n35)(n61,352,n28)(n61,358,n20)(n61,361,n20)(n61,364,n20)(n61,366,n20)(n61,370,n18)(n62,0,n4)(n62,250,n4)(n62,251,n8)(n62,252,n10)(n62,253,n12)(n62,254,n14)(n62,255,n16)(n62,256,n18)(n62,261,n20)(n62,270,n20)(n62,271,n23)(n62,273,n25)(n62,275,n28)(n62,276,n28)(n62,277,n31)(n62,278,n33)(n62,281,n35)(n62,290,n38)(n62,291,n38)(n62,295,n41)(n62,296,n43)(n62,304,n45)(n62,315,n47)(n62,319,n47)(n62,324,n45)(n62,331,n41)(n62,337,n36)(n62,347,n31)(n62,352,n25)(n62,358,n20)(n62,361,n20)(n62,364,n18)(n62,366,n18)(n62,370,n12)(n62,373,n6)(n62,377,n4)(n63,0,n4)(n63,250,n4)(n63,251,n8)(n63,252,n10)(n63,253,n12)(n63,254,n14)(n63,255,n16)(n63,256,n18)(n63,261,n20)(n63,270,n20)(n63,271,n23)(n63,273,n25)(n63,275,n28)(n63,276,n28)(n63,277,n31)(n63,278,n33)(n63,281,n35)(n63,290,n38)(n63,291,n38)(n63,295,n41)(n63,296,n43)(n63,304,n45)(n63,315,n47)(n63,319,n45)(n63,324,n45)(n63,331,n36)(n63,337,n36)(n63,347,n26)(n63,352,n20)(n63,358,n20)(n63,361,n18)(n63,364,n18)(n63,366,n14)(n63,370,n6)(n63,373,n4)(n63,377,n4)(n64,0,n4)(n64,250,n4)(n64,251,n8)(n64,252,n10)(n64,253,n12)(n64,254,n14)(n64,255,n16)(n64,256,n18)(n64,261,n20)(n64,270,n20)(n64,271,n23)(n64,273,n25)(n64,275,n28)(n64,276,n28)(n64,277,n31)(n64,278,n33)(n64,281,n35)(n64,290,n38)(n64,291,n38)(n64,295,n41)(n64,296,n43)(n64,304,n45)(n64,315,n45)(n64,319,n45)(n64,324,n41)(n64,331,n36)(n64,337,n35)(n64,347,n20)(n64,352,n20)(n64,358,n18)(n64,361,n14)(n64,364,n8)(n64,366,n4)(n64,370,n4)(n64,373,n4)(n64,377,n4)(n64,380,n4)(n65,0,n4)(n65,250,n4)(n65,251,n8)(n65,252,n10)(n65,253,n12)(n65,254,n14)(n65,255,n16)(n65,256,n18)(n65,261,n20)(n65,270,n20)(n65,271,n23)(n65,273,n25)(n65,275,n28)(n65,276,n28)(n65,277,n31)(n65,278,n33)(n65,281,n35)(n65,290,n38)(n65,291,n38)(n65,295,n41)(n65,296,n43)(n65,304,n45)(n65,315,n36)(n65,319,n36)(n65,324,n33)(n65,331,n23)(n65,337,n20)(n65,347,n14)(n65,352,n4)(n65,358,n4)(n65,361,n4)(n65,364,n4)(n65,366,n4)(n65,370,n4)(n65,373,n4)(n65,377,n4)(n65,380,n4)(n65,385,n4)(n66,0,n4)(n66,250,n4)(n66,251,n8)(n66,252,n10)(n66,253,n12)(n66,254,n14)(n66,255,n16)(n66,256,n18)(n66,261,n20)(n66,270,n20)(n66,271,n23)(n66,273,n25)(n66,275,n28)(n66,276,n28)(n66,277,n31)(n66,278,n33)(n66,281,n35)(n66,290,n38)(n66,291,n36)(n66,295,n36)(n66,296,n36)(n66,304,n31)(n66,315,n20)(n66,319,n20)(n66,324,n18)(n66,331,n4)(n66,337,n4)(n66,347,n4)(n66,352,n4)(n66,358,n4)(n66,361,n4)(n66,364,n4)(n66,366,n4)(n66,370,n4)(n66,373,n4)(n66,377,n4)(n66,380,n4)(n66,385,n4)(n66,399,n4)(n67,0,n4)(n67,250,n4)(n67,251,n8)(n67,252,n10)(n67,253,n12)(n67,254,n14)(n67,255,n16)(n67,256,n18)(n67,261,n20)(n67,270,n20)(n67,271,n23)(n67,273,n25)(n67,275,n28)(n67,276,n28)(n67,277,n31)(n67,278,n33)(n67,281,n35)(n67,290,n36)(n67,291,n36)(n67,295,n36)(n67,296,n35)(n67,304,n25)(n67,315,n20)(n67,319,n18)(n67,324,n10)(n67,331,n4)(n67,337,n4)(n67,347,n4)(n67,352,n4)(n67,358,n4)(n67,361,n4)(n67,364,n4)(n67,366,n4)(n67,370,n4)(n67,373,n4)(n67,377,n4)(n67,380,n4)(n67,385,n4)(n67,399,n4)(n67,420,n4)(n68,0,n4)(n68,250,n4)(n68,251,n8)(n68,252,n10)(n68,253,n12)(n68,254,n14)(n68,255,n16)(n68,256,n18)(n68,261,n20)(n68,270,n20)(n68,271,n23)(n68,273,n25)(n68,275,n28)(n68,276,n28)(n68,277,n31)(n68,278,n33)(n68,281,n35)(n68,290,n31)(n68,291,n28)(n68,295,n25)(n68,296,n23)(n68,304,n20)(n68,315,n8)(n68,319,n4)(n68,324,n4)(n68,331,n4)(n68,337,n4)(n68,347,n4)(n68,352,n4)(n68,358,n4)(n68,361,n4)(n68,364,n4)(n68,366,n4)(n68,370,n4)(n68,373,n4)(n68,377,n4)(n68,380,n4)(n68,385,n4)(n68,399,n4)(n68,420,n4)(n68,424,n4)(n69,0,n4)(n69,250,n4)(n69,251,n8)(n69,252,n10)(n69,253,n12)(n69,254,n14)(n69,255,n16)(n69,256,n18)(n69,261,n20)(n69,270,n20)(n69,271,n23)(n69,273,n25)(n69,275,n28)(n69,276,n28)(n69,277,n31)(n69,278,n33)(n69,281,n35)(n69,290,n25)(n69,291,n23)(n69,295,n20)(n69,296,n20)(n69,304,n18)(n69,315,n4)(n69,319,n4)(n69,324,n4)(n69,331,n4)(n69,337,n4)(n69,347,n4)(n69,352,n4)(n69,358,n4)(n69,361,n4)(n69,364,n4)(n69,366,n4)(n69,370,n4)(n69,373,n4)(n69,377,n4)(n69,380,n4)(n69,385,n4)(n69,399,n4)(n69,420,n4)(n69,424,n4)(n69,434,n4)(n70,0,n4)(n70,250,n4)(n70,251,n8)(n70,252,n10)(n70,253,n12)(n70,254,n14)(n70,255,n16)(n70,256,n18)(n70,261,n20)(n70,270,n20)(n70,271,n23)(n70,273,n25)(n70,275,n28)(n70,276,n28)(n70,277,n31)(n70,278,n33)(n70,281,n31)(n70,290,n20)(n70,291,n20)(n70,295,n20)(n70,296,n20)(n70,304,n12)(n70,315,n4)(n70,319,n4)(n70,324,n4)(n70,331,n4)(n70,337,n4)(n70,347,n4)(n70,352,n4)(n70,358,n4)(n70,361,n4)(n70,364,n4)(n70,366,n4)(n70,370,n4)(n70,373,n4)(n70,377,n4)(n70,380,n4)(n70,385,n4)(n70,399,n4)(n70,420,n4)(n70,424,n4)(n70,434,n4)(n70,439,n4)(n71,0,n4)(n71,250,n4)(n71,251,n8)(n71,252,n10)(n71,253,n12)(n71,254,n14)(n71,255,n16)(n71,256,n18)(n71,261,n20)(n71,270,n20)(n71,271,n23)(n71,273,n25)(n71,275,n25)(n71,276,n25)(n71,277,n23)(n71,278,n20)(n71,281,n20)(n71,290,n18)(n71,291,n18)(n71,295,n10)(n71,296,n8)(n71,304,n4)(n71,315,n4)(n71,319,n4)(n71,324,n4)(n71,331,n4)(n71,337,n4)(n71,347,n4)(n71,352,n4)(n71,358,n4)(n71,361,n4)(n71,364,n4)(n71,366,n4)(n71,370,n4)(n71,373,n4)(n71,377,n4)(n71,380,n4)(n71,385,n4)(n71,399,n4)(n71,420,n4)(n71,424,n4)(n71,434,n4)(n71,439,n4)(n71,443,n4)(n72,0,n4)(n72,250,n4)(n72,251,n8)(n72,252,n10)(n72,253,n12)(n72,254,n14)(n72,255,n16)(n72,256,n18)(n72,261,n20)(n72,270,n20)(n72,271,n20)(n72,273,n20)(n72,275,n18)(n72,276,n18)(n72,277,n18)(n72,278,n18)(n72,281,n12)(n72,290,n4)(n72,291,n4)(n72,295,n4)(n72,296,n4)(n72,304,n4)(n72,315,n4)(n72,319,n4)(n72,324,n4)(n72,331,n4)(n72,337,n4)(n72,347,n4)(n72,352,n4)(n72,358,n4)(n72,361,n4)(n72,364,n4)(n72,366,n4)(n72,370,n4)(n72,373,n4)(n72,377,n4)(n72,380,n4)(n72,385,n4)(n72,399,n4)(n72,420,n4)(n72,424,n4)(n72,434,n4)(n72,439,n4)(n72,443,n4)(n72,453,n4)(n73,0,n4)(n73,250,n4)(n73,251,n8)(n73,252,n10)(n73,253,n12)(n73,254,n14)(n73,255,n16)(n73,256,n18)(n73,261,n20)(n73,270,n18)(n73,271,n18)(n73,273,n18)(n73,275,n14)(n73,276,n12)(n73,277,n10)(n73,278,n8)(n73,281,n4)(n73,290,n4)(n73,291,n4)(n73,295,n4)(n73,296,n4)(n73,304,n4)(n73,315,n4)(n73,319,n4)(n73,324,n4)(n73,331,n4)(n73,337,n4)(n73,347,n4)(n73,352,n4)(n73,358,n4)(n73,361,n4)(n73,364,n4)(n73,366,n4)(n73,370,n4)(n73,373,n4)(n73,377,n4)(n73,380,n4)(n73,385,n4)(n73,399,n4)(n73,420,n4)(n73,424,n4)(n73,434,n4)(n73,439,n4)(n73,443,n4)(n73,453,n4)(n73,466,n4)(n74,0,n4)(n74,250,n4)(n74,251,n8)(n74,252,n10)(n74,253,n12)(n74,254,n14)(n74,255,n16)(n74,256,n18)(n74,261,n18)(n74,270,n8)(n74,271,n6)(n74,273,n4)(n74,275,n4)(n74,276,n4)(n74,277,n4)(n74,278,n4)(n74,281,n4)(n74,290,n4)(n74,291,n4)(n74,295,n4)(n74,296,n4)(n74,304,n4)(n74,315,n4)(n74,319,n4)(n74,324,n4)(n74,331,n4)(n74,337,n4)(n74,347,n4)(n74,352,n4)(n74,358,n4)(n74,361,n4)(n74,364,n4)(n74,366,n4)(n74,370,n4)(n74,373,n4)(n74,377,n4)(n74,380,n4)(n74,385,n4)(n74,399,n4)(n74,420,n4)(n74,424,n4)(n74,434,n4)(n74,439,n4)(n74,443,n4)(n74,453,n4)(n74,466,n4)(n74,471,n4)(n75,0,n4)(n75,250,n4)(n75,251,n8)(n75,252,n10)(n75,253,n12)(n75,254,n14)(n75,255,n12)(n75,256,n10)(n75,261,n4)(n75,270,n4)(n75,271,n4)(n75,273,n4)(n75,275,n4)(n75,276,n4)(n75,277,n4)(n75,278,n4)(n75,281,n4)(n75,290,n4)(n75,291,n4)(n75,295,n4)(n75,296,n4)(n75,304,n4)(n75,315,n4)(n75,319,n4)(n75,324,n4)(n75,331,n4)(n75,337,n4)(n75,347,n4)(n75,352,n4)(n75,358,n4)(n75,361,n4)(n75,364,n4)(n75,366,n4)(n75,370,n4)(n75,373,n4)(n75,377,n4)(n75,380,n4)(n75,385,n4)(n75,399,n4)(n75,420,n4)(n75,424,n4)(n75,434,n4)(n75,439,n4)(n75,443,n4)(n75,453,n4)(n75,466,n4)(n75,471,n4)(n75,479,n4)(n76,0,n4)(n76,250,n4)(n76,251,n8)(n76,252,n10)(n76,253,n12)(n76,254,n12)(n76,255,n10)(n76,256,n8)(n76,261,n4)(n76,270,n4)(n76,271,n4)(n76,273,n4)(n76,275,n4)(n76,276,n4)(n76,277,n4)(n76,278,n4)(n76,281,n4)(n76,290,n4)(n76,291,n4)(n76,295,n4)(n76,296,n4)(n76,304,n4)(n76,315,n4)(n76,319,n4)(n76,324,n4)(n76,331,n4)(n76,337,n4)(n76,347,n4)(n76,352,n4)(n76,358,n4)(n76,361,n4)(n76,364,n4)(n76,366,n4)(n76,370,n4)(n76,373,n4)(n76,377,n4)(n76,380,n4)(n76,385,n4)(n76,399,n4)(n76,420,n4)(n76,424,n4)(n76,434,n4)(n76,439,n4)(n76,443,n4)(n76,453,n4)(n76,466,n4)(n76,471,n4)(n76,479,n4)(n76,492,n4)(n77,0,n4)(n77,250,n4)(n77,251,n8)(n77,252,n10)(n77,253,n10)(n77,254,n8)(n77,255,n6)(n77,256,n4)(n77,261,n4)(n77,270,n4)(n77,271,n4)(n77,273,n4)(n77,275,n4)(n77,276,n4)(n77,277,n4)(n77,278,n4)(n77,281,n4)(n77,290,n4)(n77,291,n4)(n77,295,n4)(n77,296,n4)(n77,304,n4)(n77,315,n4)(n77,319,n4)(n77,324,n4)(n77,331,n4)(n77,337,n4)(n77,347,n4)(n77,352,n4)(n77,358,n4)(n77,361,n4)(n77,364,n4)(n77,366,n4)(n77,370,n4)(n77,373,n4)(n77,377,n4)(n77,380,n4)(n77,385,n4)(n77,399,n4)(n77,420,n4)(n77,424,n4)(n77,434,n4)(n77,439,n4)(n77,443,n4)(n77,453,n4)(n77,466,n4)(n77,471,n4)(n77,479,n4)(n77,492,n4)(n77,493,n4) </transitions>
      </mdd>
      <args> b[0][] </args>
      <args> b[1][] </args>
      <args> b[2][] </args>
      <args> b[3][] </args>
      <args> b[4][] </args>
      <args> b[5][] </args>
      <args> b[6][] </args>
      <args> b[7][] </args>
      <args> b[8][] </args>
      <args> b[9][] </args>
      <args> b[10][] </args>
      <args> b[11][] </args>
      <args> b[12][] </args>
      <args> b[13][] </args>
      <args> b[14][] </args>
      <args> b[15][] </args>
      <args> b[16][] </args>
      <args> b[17][] </args>
      <args> b[18][] </args>
      <args> b[19][] </args>
      <args> b[20][] </args>
      <args> b[21][] </args>
      <args> b[22][] </args>
      <args> b[23][] </args>
    </group>
    <cardinality>
      <list> b[][] </list>
      <values> 0 250 251 252 253 254 255 256 261 270 271 273 275 276 277 278 281 290 291 295 296 304 315 319 324 331 337 347 352 358 361 364 366 370 373 377 380 385 399 420 424 434 439 443 453 466 471 479 492 493 495 </values>
      <occurs> 12 1 2 2 2 2 2 2 2 1 1 1 2 1 1 1 1 2 1 1 1 1 1 1 1 1 1 1 1 1 1 1 1 1 1 2 1 1 1 1 1 1 1 1 1 1 1 1 1 1 1 </occurs>
    </cardinality>
    <lex class="symmetryBreaking">
      <list> b[0][] </list>
      <list> b[1][] </list>
      <list> b[2][] </list>
      <list> b[3][] </list>
      <list> b[4][] </list>
      <list> b[5][] </list>
      <list> b[6][] </list>
      <list> b[7][] </list>
      <list> b[8][] </list>
      <list> b[9][] </list>
      <list> b[10][] </list>
      <list> b[11][] </list>
      <list> b[12][] </list>
      <list> b[13][] </list>
      <list> b[14][] </list>
      <list> b[15][] </list>
      <list> b[16][] </list>
      <list> b[17][] </list>
      <list> b[18][] </list>
      <list> b[19][] </list>
      <list> b[20][] </list>
      <list> b[21][] </list>
      <list> b[22][] </list>
      <list> b[23][] </list>
      <operator> ge </operator>
    </lex>
    <count>
      <list> b[][0] </list>
      <values> 0 </values>
      <condition> (eq,x) </condition>
    </count>
  </constraints>
  <objectives>
    <maximize> x </maximize>
  </objectives>
</instance>
